NAME 
ROWS
 N  OBJ
 L  R0      
 E  R1      
 E  R2      
 E  R3      
 E  R4      
 E  R5      
 E  R6      
 E  R7      
 E  R8      
 E  R9      
 E  R10     
 E  R11     
 E  R12     
 E  R13     
 E  R14     
 E  R15     
 E  R16     
 E  R17     
 E  R18     
 E  R19     
 E  R20     
COLUMNS
    MARKER    'MARKER'                 'INTORG'
    I0(9)     OBJ       -117
    I0(9)     R0        41
    I0(9)     R1        -1
    I0(9)     R2        15
    I0(9)     R3        6
    I0(9)     R6        3
    I0(9)     R7        13
    I0(9)     R9        19
    I0(9)     R10       12
    I0(9)     R20       1
    I1(10)    OBJ       -15
    I1(10)    R0        5
    I1(10)    R1        13
    I1(10)    R2        17
    I1(10)    R3        7
    I1(10)    R6        6
    I1(10)    R7        5
    I1(10)    R8        1
    I1(10)    R9        2
    I1(10)    R10       19
    I1(10)    R20       1
    I2(10)    OBJ       31
    I2(10)    R0        -12
    I2(10)    R1        4
    I2(10)    R2        13
    I2(10)    R4        13
    I2(10)    R5        10
    I2(10)    R6        7
    I2(10)    R8        11
    I2(10)    R9        11
    I2(10)    R10       5
    I2(10)    R20       1
    I3(12)    OBJ       -200
    I3(12)    R0        -5
    I3(12)    R1        7
    I3(12)    R2        14
    I3(12)    R3        15
    I3(12)    R4        5
    I3(12)    R5        -1
    I3(12)    R6        9
    I3(12)    R7        6
    I3(12)    R8        17
    I3(12)    R9        13
    I3(12)    R10       9
    I3(12)    R20       1
    I4(11)    OBJ       -22
    I4(11)    R0        99
    I4(11)    R1        8
    I4(11)    R2        -1
    I4(11)    R4        19
    I4(11)    R5        6
    I4(11)    R6        -1
    I4(11)    R7        14
    I4(11)    R8        9
    I4(11)    R9        8
    I4(11)    R10       12
    I4(11)    R20       1
    I5(8)     OBJ       -179
    I5(8)     R0        125
    I5(8)     R1        13
    I5(8)     R2        4
    I5(8)     R5        15
    I5(8)     R6        7
    I5(8)     R7        -1
    I5(8)     R10       12
    I5(8)     R20       1
    I6(7)     OBJ       133
    I6(7)     R0        -45
    I6(7)     R1        6
    I6(7)     R3        11
    I6(7)     R6        4
    I6(7)     R7        9
    I6(7)     R10       8
    I6(7)     R20       1
    I7(10)    OBJ       96
    I7(10)    R0        -191
    I7(10)    R1        9
    I7(10)    R2        13
    I7(10)    R3        19
    I7(10)    R4        5
    I7(10)    R5        6
    I7(10)    R7        7
    I7(10)    R8        17
    I7(10)    R9        6
    I7(10)    R20       1
    I8(9)     OBJ       18
    I8(9)     R0        152
    I8(9)     R1        4
    I8(9)     R2        2
    I8(9)     R3        6
    I8(9)     R4        -1
    I8(9)     R5        14
    I8(9)     R9        8
    I8(9)     R10       4
    I8(9)     R20       1
    I9(9)     OBJ       -138
    I9(9)     R0        179
    I9(9)     R2        18
    I9(9)     R4        17
    I9(9)     R6        4
    I9(9)     R7        18
    I9(9)     R8        2
    I9(9)     R9        1
    I9(9)     R10       1
    I9(9)     R20       1
    MARKER    'MARKER'                 'INTEND'
    C10(17)   OBJ       9
    C10(17)   R0        -1
    C10(17)   R2        8
    C10(17)   R3        12
    C10(17)   R4        -1
    C10(17)   R5        1
    C10(17)   R6        5
    C10(17)   R7        4
    C10(17)   R8        2
    C10(17)   R9        9
    C10(17)   R10       16
    C10(17)   R11       15
    C10(17)   R12       8
    C10(17)   R14       5
    C10(17)   R16       9
    C10(17)   R17       6
    C10(17)   R18       7
    C10(17)   R19       14
    C11(16)   OBJ       8
    C11(16)   R0        5
    C11(16)   R1        11
    C11(16)   R2        1
    C11(16)   R3        13
    C11(16)   R4        18
    C11(16)   R5        8
    C11(16)   R6        19
    C11(16)   R7        1
    C11(16)   R9        13
    C11(16)   R10       5
    C11(16)   R11       13
    C11(16)   R12       4
    C11(16)   R13       12
    C11(16)   R14       4
    C11(16)   R17       8
    C11(16)   R19       18
    C12(13)   OBJ       -5
    C12(13)   R0        9
    C12(13)   R1        10
    C12(13)   R2        13
    C12(13)   R4        10
    C12(13)   R5        6
    C12(13)   R6        12
    C12(13)   R7        18
    C12(13)   R8        12
    C12(13)   R10       19
    C12(13)   R15       7
    C12(13)   R16       5
    C12(13)   R17       4
    C12(13)   R18       13
    C13(17)   OBJ       -3
    C13(17)   R0        -1
    C13(17)   R1        18
    C13(17)   R2        1
    C13(17)   R4        6
    C13(17)   R6        2
    C13(17)   R7        7
    C13(17)   R8        2
    C13(17)   R9        6
    C13(17)   R10       12
    C13(17)   R11       4
    C13(17)   R12       7
    C13(17)   R13       19
    C13(17)   R14       18
    C13(17)   R15       11
    C13(17)   R16       9
    C13(17)   R18       16
    C13(17)   R19       16
    C14(17)   OBJ       -6
    C14(17)   R0        -2
    C14(17)   R1        10
    C14(17)   R2        5
    C14(17)   R3        15
    C14(17)   R5        17
    C14(17)   R6        17
    C14(17)   R7        12
    C14(17)   R8        15
    C14(17)   R10       8
    C14(17)   R12       5
    C14(17)   R13       9
    C14(17)   R14       19
    C14(17)   R15       10
    C14(17)   R16       16
    C14(17)   R17       17
    C14(17)   R18       2
    C14(17)   R19       16
    C15(15)   OBJ       4
    C15(15)   R0        9
    C15(15)   R3        14
    C15(15)   R4        8
    C15(15)   R5        12
    C15(15)   R7        13
    C15(15)   R8        5
    C15(15)   R9        8
    C15(15)   R10       6
    C15(15)   R11       18
    C15(15)   R12       12
    C15(15)   R13       9
    C15(15)   R15       -1
    C15(15)   R17       12
    C15(15)   R18       6
    C15(15)   R19       16
    C16(17)   OBJ       -6
    C16(17)   R0        -2
    C16(17)   R1        16
    C16(17)   R2        -1
    C16(17)   R3        14
    C16(17)   R4        5
    C16(17)   R5        14
    C16(17)   R6        2
    C16(17)   R8        11
    C16(17)   R9        8
    C16(17)   R10       8
    C16(17)   R12       15
    C16(17)   R14       13
    C16(17)   R15       7
    C16(17)   R16       7
    C16(17)   R17       5
    C16(17)   R18       10
    C16(17)   R19       1
    C17(18)   OBJ       -5
    C17(18)   R0        -5
    C17(18)   R1        18
    C17(18)   R2        14
    C17(18)   R3        1
    C17(18)   R4        3
    C17(18)   R6        10
    C17(18)   R7        9
    C17(18)   R8        12
    C17(18)   R9        17
    C17(18)   R10       2
    C17(18)   R12       9
    C17(18)   R13       17
    C17(18)   R14       16
    C17(18)   R15       2
    C17(18)   R16       17
    C17(18)   R17       13
    C17(18)   R18       14
    C17(18)   R19       15
    C18(17)   OBJ       -3
    C18(17)   R0        3
    C18(17)   R1        13
    C18(17)   R2        1
    C18(17)   R3        12
    C18(17)   R5        17
    C18(17)   R6        10
    C18(17)   R7        6
    C18(17)   R8        16
    C18(17)   R10       4
    C18(17)   R11       10
    C18(17)   R12       17
    C18(17)   R14       4
    C18(17)   R15       9
    C18(17)   R16       -1
    C18(17)   R17       18
    C18(17)   R18       7
    C18(17)   R19       6
    C19(18)   OBJ       3
    C19(18)   R0        -8
    C19(18)   R1        12
    C19(18)   R2        3
    C19(18)   R3        6
    C19(18)   R4        15
    C19(18)   R5        18
    C19(18)   R6        17
    C19(18)   R7        8
    C19(18)   R8        8
    C19(18)   R9        12
    C19(18)   R11       9
    C19(18)   R13       19
    C19(18)   R14       7
    C19(18)   R15       4
    C19(18)   R16       1
    C19(18)   R17       11
    C19(18)   R18       3
    C19(18)   R19       4
    C20(1)    R1        1
    C21(1)    R2        1
    C22(1)    R3        1
    C23(1)    R4        1
    C24(1)    R5        1
    C25(1)    R6        1
    C26(1)    R7        1
    C27(1)    R8        1
    C28(1)    R9        1
    C29(1)    R10       1
    C30(1)    R11       1
    C31(1)    R12       1
    C32(1)    R13       1
    C33(1)    R14       1
    C34(1)    R15       1
    C35(1)    R16       1
    C36(1)    R17       1
    C37(1)    R18       1
    C38(1)    R19       1
    C39(1)    R20       1
RHS
    RHS1      R0        2.9214272809394760e+02
    RHS1      R1        84
    RHS1      R2        79
    RHS1      R3        91
    RHS1      R4        64
    RHS1      R5        67
    RHS1      R6        80
    RHS1      R7        96
    RHS1      R8        97
    RHS1      R9        51
    RHS1      R10       60
    RHS1      R11       86
    RHS1      R12       82
    RHS1      R13       73
    RHS1      R14       76
    RHS1      R15       63
    RHS1      R16       84
    RHS1      R17       84
    RHS1      R18       82
    RHS1      R19       51
    RHS1      R20       3
BOUNDS
 UP BND1      I0(9)     1
 UP BND1      I1(10)    1
 UP BND1      I2(10)    1
 UP BND1      I3(12)    1
 UP BND1      I4(11)    1
 UP BND1      I5(8)     1
 UP BND1      I6(7)     1
 UP BND1      I7(10)    1
 UP BND1      I8(9)     1
 UP BND1      I9(9)     1
ENDATA
